\ Model Roadef challenge
\ LP format - for model browsing. Use MPS format to capture full model detail.
Minimize
  0.1666666666666667 risk_bar_t[0] + 0.1666666666666667 risk_bar_t[1]
   + 0.1666666666666667 risk_bar_t[2] + 0.1666666666666667 excess[0]
   + 0.1666666666666667 excess[1] + 0.1666666666666667 excess[2]
Subject To
 R0: z[0,0] + z[0,1] + z[0,2] = 1
 R1: z[1,0] + z[1,1] + z[1,2] = 1
 R2: z[2,0] + z[2,1] + z[2,2] = 1
 R3: - z[0,0] + w[0,0] >= 0
 R4: - z[0,1] + w[0,1] >= 0
 R5: - z[0,2] + w[0,2] >= 0
 R6: - z[1,0] + w[1,0] >= 0
 R7: - z[1,1] + w[1,1] >= 0
 R8: - z[1,2] + w[1,2] >= 0
 R9: - z[2,0] + w[2,0] >= 0
 R10: - z[2,1] + w[2,1] >= 0
 R11: - z[2,2] + w[2,2] >= 0
 R12: 3 z[0,0] <= 3
 R13: 4 z[0,1] <= 3
 R14: 4 z[0,2] <= 3
 R15: z[1,0] <= 3
 R16: 2 z[1,1] <= 3
 R17: 3 z[1,2] <= 3
 R18: z[2,0] <= 3
 R19: 2 z[2,1] <= 3
 R20: 4 z[2,2] <= 3
 R21: z[0,0] <= 1
 R22: 2 z[0,1] <= 1
 R23: 3 z[0,2] <= 1
 R24: z[1,0] <= 3
 R25: 2 z[1,1] <= 3
 R26: 3 z[1,2] <= 3
 R27: z[2,0] <= 2
 R28: 2 z[2,1] <= 2
 R29: 3 z[2,2] <= 2
 R30: w[1,0] + w[2,0] <= 1
 R31: w[1,1] + w[2,1] <= 1
 R32: w[1,2] + w[2,2] <= 1
 R33: - z[0,0] - w[0,0] + beta[0,0,0] >= -1
 R34: - z[0,0] - w[0,1] + beta[0,1,0] >= -1
 R35: - z[0,1] - w[0,1] + beta[0,1,1] >= -1
 R36: - z[0,0] - w[0,2] + beta[0,2,0] >= -1
 R37: - z[0,1] - w[0,2] + beta[0,2,1] >= -1
 R38: - z[0,2] - w[0,2] + beta[0,2,2] >= -1
 R39: - z[1,0] - w[1,0] + beta[1,0,0] >= -1
 R40: - z[1,0] - w[1,1] + beta[1,1,0] >= -1
 R41: - z[1,1] - w[1,1] + beta[1,1,1] >= -1
 R42: - z[1,0] - w[1,2] + beta[1,2,0] >= -1
 R43: - z[1,1] - w[1,2] + beta[1,2,1] >= -1
 R44: - z[1,2] - w[1,2] + beta[1,2,2] >= -1
 R45: - z[2,0] - w[2,0] + beta[2,0,0] >= -1
 R46: - z[2,0] - w[2,1] + beta[2,1,0] >= -1
 R47: - z[2,1] - w[2,1] + beta[2,1,1] >= -1
 R48: - z[2,0] - w[2,2] + beta[2,2,0] >= -1
 R49: - z[2,1] - w[2,2] + beta[2,2,1] >= -1
 R50: - z[2,2] - w[2,2] + beta[2,2,2] >= -1
 R51: 31 beta[0,0,0] + 14 beta[1,0,0] + 5 beta[2,0,0] >= 10
 R52: 14 beta[1,1,1] + 5 beta[2,1,1] >= 0
 R53: 8 beta[0,2,0] + 14 beta[1,2,2] >= 6
 R54: 31 beta[0,0,0] + 14 beta[1,0,0] + 5 beta[2,0,0] <= 49
 R55: 14 beta[1,1,1] + 5 beta[2,1,1] <= 23
 R56: 8 beta[0,2,0] + 14 beta[1,2,2] <= 15
 R57: - 7 beta[0,0,0] - 5 beta[1,0,0] - 4 beta[2,0,0] + risk_s_t[0,0] = 0
 R58: - 4 beta[0,0,0] - 4 beta[1,0,0] - 8 beta[2,0,0] + risk_s_t[1,0] = 0
 R59: - 8 beta[0,0,0] - 5 beta[1,0,0] - 2 beta[2,0,0] + risk_s_t[2,0] = 0
 R60: - beta[0,1,0] - 5 beta[1,1,1] - 3 beta[2,1,1] + risk_s_t[0,1] = 0
 R61: - 10 beta[0,1,0] - 4 beta[1,1,1] - 8 beta[2,1,1] + risk_s_t[1,1] = 0
 R62: - 10 beta[0,1,0] - 5 beta[1,1,1] - beta[2,1,1] + risk_s_t[2,1] = 0
 R63: - beta[0,2,0] - 5 beta[1,2,2] + risk_s_t[0,2] = 0
 R64: - 4 beta[0,2,0] - 4 beta[1,2,2] + risk_s_t[1,2] = 0
 R65: - 4 beta[0,2,0] - 5 beta[1,2,2] + risk_s_t[2,2] = 0
 R66: - 0.3333333333333333 risk_s_t[0,0] - 0.3333333333333333 risk_s_t[1,0]
   - 0.3333333333333333 risk_s_t[2,0] + risk_bar_t[0] = 0
 R67: - 0.3333333333333333 risk_s_t[0,1] - 0.3333333333333333 risk_s_t[1,1]
   - 0.3333333333333333 risk_s_t[2,1] + risk_bar_t[1] = 0
 R68: - 0.3333333333333333 risk_s_t[0,2] - 0.3333333333333333 risk_s_t[1,2]
   - 0.3333333333333333 risk_s_t[2,2] + risk_bar_t[2] = 0
 R69: y[0,0] + y[1,0] + y[2,0] >= 1.5
 R70: y[0,1] + y[1,1] + y[2,1] >= 1.5
 R71: y[0,2] + y[1,2] + y[2,2] >= 1.5
 R72: y[0,0] + y[1,0] + y[2,0] <= 2.5
 R73: y[0,1] + y[1,1] + y[2,1] <= 2.5
 R74: y[0,2] + y[1,2] + y[2,2] <= 2.5
 R75: 10 y[0,0] - 10 y[1,0] + risk_s_t[0,0] - risk_s_t[1,0] >= -10
 R76: 10 y[0,0] - 10 y[2,0] + risk_s_t[0,0] - risk_s_t[2,0] >= -10
 R77: - 10 y[0,0] + 10 y[1,0] - risk_s_t[0,0] + risk_s_t[1,0] >= -10
 R78: 10 y[1,0] - 10 y[2,0] + risk_s_t[1,0] - risk_s_t[2,0] >= -10
 R79: - 10 y[0,0] + 10 y[2,0] - risk_s_t[0,0] + risk_s_t[2,0] >= -10
 R80: - 10 y[1,0] + 10 y[2,0] - risk_s_t[1,0] + risk_s_t[2,0] >= -10
 R81: 10 y[0,1] - 10 y[1,1] + risk_s_t[0,1] - risk_s_t[1,1] >= -10
 R82: 10 y[0,1] - 10 y[2,1] + risk_s_t[0,1] - risk_s_t[2,1] >= -10
 R83: - 10 y[0,1] + 10 y[1,1] - risk_s_t[0,1] + risk_s_t[1,1] >= -10
 R84: 10 y[1,1] - 10 y[2,1] + risk_s_t[1,1] - risk_s_t[2,1] >= -10
 R85: - 10 y[0,1] + 10 y[2,1] - risk_s_t[0,1] + risk_s_t[2,1] >= -10
 R86: - 10 y[1,1] + 10 y[2,1] - risk_s_t[1,1] + risk_s_t[2,1] >= -10
 R87: 10 y[0,2] - 10 y[1,2] + risk_s_t[0,2] - risk_s_t[1,2] >= -10
 R88: 10 y[0,2] - 10 y[2,2] + risk_s_t[0,2] - risk_s_t[2,2] >= -10
 R89: - 10 y[0,2] + 10 y[1,2] - risk_s_t[0,2] + risk_s_t[1,2] >= -10
 R90: 10 y[1,2] - 10 y[2,2] + risk_s_t[1,2] - risk_s_t[2,2] >= -10
 R91: - 10 y[0,2] + 10 y[2,2] - risk_s_t[0,2] + risk_s_t[2,2] >= -10
 R92: - 10 y[1,2] + 10 y[2,2] - risk_s_t[1,2] + risk_s_t[2,2] >= -10
 R93: - 10 y[0,0] - risk_s_t[0,0] + q_t[0] >= -10
 R94: - 10 y[1,0] - risk_s_t[1,0] + q_t[0] >= -10
 R95: - 10 y[2,0] - risk_s_t[2,0] + q_t[0] >= -10
 R96: - 10 y[0,1] - risk_s_t[0,1] + q_t[1] >= -10
 R97: - 10 y[1,1] - risk_s_t[1,1] + q_t[1] >= -10
 R98: - 10 y[2,1] - risk_s_t[2,1] + q_t[1] >= -10
 R99: - 10 y[0,2] - risk_s_t[0,2] + q_t[2] >= -10
 R100: - 10 y[1,2] - risk_s_t[1,2] + q_t[2] >= -10
 R101: - 10 y[2,2] - risk_s_t[2,2] + q_t[2] >= -10
 R102: excess[0] >= 0
 R103: excess[1] >= 0
 R104: excess[2] >= 0
 R105: risk_bar_t[0] - q_t[0] + excess[0] >= 0
 R106: risk_bar_t[1] - q_t[1] + excess[1] >= 0
 R107: risk_bar_t[2] - q_t[2] + excess[2] >= 0
 R108: - 3 z[0,0] + w[0,0] + w[0,1] + w[0,2] >= 0
 R109: - z[1,0] + w[1,0] + w[1,1] + w[1,2] >= 0
 R110: - z[1,1] + w[1,1] + w[1,2] >= 0
 R111: - z[1,2] + w[1,2] >= 0
 R112: - z[2,0] + w[2,0] + w[2,1] + w[2,2] >= 0
 R113: - z[2,1] + w[2,1] + w[2,2] >= 0
 R114: - 3 z[0,0] + w[0,0] + w[0,1] + w[0,2] = 0
 R115: - z[1,0] - z[1,1] - z[1,2] + w[1,0] + w[1,1] + w[1,2] = 0
 R116: - z[2,0] - z[2,1] + w[2,0] + w[2,1] + w[2,2] = 0
 R117: 3 z[0,0] - w[0,0] - w[0,1] - w[0,2] = 0
 R118: z[1,0] - w[1,0] = 0
 R119: z[1,1] - w[1,1] = 0
 R120: z[1,2] - w[1,2] = 0
 R121: z[2,0] - w[2,0] = 0
 R122: z[2,1] - w[2,1] = 0
Bounds
Binaries
 z[0,0] z[0,1] z[0,2] z[1,0] z[1,1] z[1,2] z[2,0] z[2,1] z[2,2] w[0,0]
 w[0,1] w[0,2] w[1,0] w[1,1] w[1,2] w[2,0] w[2,1] w[2,2] y[0,0] y[0,1]
 y[0,2] y[1,0] y[1,1] y[1,2] y[2,0] y[2,1] y[2,2] beta[0,0,0] beta[0,1,0]
 beta[0,1,1] beta[0,2,0] beta[0,2,1] beta[0,2,2] beta[1,0,0] beta[1,1,0]
 beta[1,1,1] beta[1,2,0] beta[1,2,1] beta[1,2,2] beta[2,0,0] beta[2,1,0]
 beta[2,1,1] beta[2,2,0] beta[2,2,1] beta[2,2,2]
End
